c t mc
c file track1_057.cnf
p cnf 360 1533
-1 -181 0
-2 -182 0
-3 -183 0
-4 -184 0
-5 -185 0
-6 -186 0
-7 -187 0
-8 -188 0
-9 -189 0
-10 -190 0
-11 -191 0
-12 -192 0
-13 -193 0
-14 -194 0
-15 -195 0
-16 -196 0
-17 -197 0
-18 -198 0
-19 -199 0
-20 -200 0
-21 -201 0
-22 -202 0
-23 -203 0
-24 -204 0
-25 -205 0
-26 -206 0
-27 -207 0
-28 -208 0
-29 -209 0
-30 -210 0
-31 -211 0
-32 -212 0
-33 -213 0
-34 -214 0
-35 -215 0
-36 -216 0
-37 -217 0
-38 -218 0
-39 -219 0
-40 -220 0
-41 -221 0
-42 -222 0
-43 -223 0
-44 -224 0
-45 -225 0
-46 -226 0
-47 -227 0
-48 -228 0
-49 -229 0
-50 -230 0
-51 -231 0
-52 -232 0
-53 -233 0
-54 -234 0
-55 -235 0
-56 -236 0
-57 -237 0
-58 -238 0
-59 -239 0
-60 -240 0
-61 -241 0
-62 -242 0
-63 -243 0
-64 -244 0
-65 -245 0
-66 -246 0
-67 -247 0
-68 -248 0
-69 -249 0
-70 -250 0
-71 -251 0
-72 -252 0
-73 -253 0
-74 -254 0
-75 -255 0
-76 -256 0
-77 -257 0
-78 -258 0
-79 -259 0
-80 -260 0
-81 -261 0
-82 -262 0
-83 -263 0
-84 -264 0
-85 -265 0
-86 -266 0
-87 -267 0
-88 -268 0
-89 -269 0
-90 -270 0
-91 -271 0
-92 -272 0
-93 -273 0
-94 -274 0
-95 -275 0
-96 -276 0
-97 -277 0
-98 -278 0
-99 -279 0
-100 -280 0
-101 -281 0
-102 -282 0
-103 -283 0
-104 -284 0
-105 -285 0
-106 -286 0
-107 -287 0
-108 -288 0
-109 -289 0
-110 -290 0
-111 -291 0
-112 -292 0
-113 -293 0
-114 -294 0
-115 -295 0
-116 -296 0
-117 -297 0
-118 -298 0
-119 -299 0
-120 -300 0
-121 -301 0
-122 -302 0
-123 -303 0
-124 -304 0
-125 -305 0
-126 -306 0
-127 -307 0
-128 -308 0
-129 -309 0
-130 -310 0
-131 -311 0
-132 -312 0
-133 -313 0
-134 -314 0
-135 -315 0
-136 -316 0
-137 -317 0
-138 -318 0
-139 -319 0
-140 -320 0
-141 -321 0
-142 -322 0
-143 -323 0
-144 -324 0
-145 -325 0
-146 -326 0
-147 -327 0
-148 -328 0
-149 -329 0
-150 -330 0
-151 -331 0
-152 -332 0
-153 -333 0
-154 -334 0
-155 -335 0
-156 -336 0
-157 -337 0
-158 -338 0
-159 -339 0
-160 -340 0
-161 -341 0
-162 -342 0
-163 -343 0
-164 -344 0
-165 -345 0
-166 -346 0
-167 -347 0
-168 -348 0
-169 -349 0
-170 -350 0
-171 -351 0
-172 -352 0
-173 -353 0
-174 -354 0
-175 -355 0
-176 -356 0
-177 -357 0
-178 -358 0
-179 -359 0
-180 -360 0
-14 0
-194 0
70 0
-250 0
-100 0
280 0
1 181 166 346 0
-1 181 -166 346 0
1 -181 166 -346 0
1 181 158 338 0
-1 181 -158 338 0
1 -181 158 -338 0
1 181 126 306 0
-1 181 -126 306 0
1 -181 126 -306 0
1 181 46 226 0
-1 181 -46 226 0
1 -181 46 -226 0
1 181 126 306 0
-1 181 -126 306 0
1 -181 126 -306 0
2 182 99 279 0
-2 182 -99 279 0
2 -182 99 -279 0
2 182 179 359 0
-2 182 -179 359 0
2 -182 179 -359 0
2 182 154 334 0
-2 182 -154 334 0
2 -182 154 -334 0
2 182 9 189 0
-2 182 -9 189 0
2 -182 9 -189 0
2 182 143 323 0
-2 182 -143 323 0
2 -182 143 -323 0
3 183 148 328 0
-3 183 -148 328 0
3 -183 148 -328 0
3 183 159 339 0
-3 183 -159 339 0
3 -183 159 -339 0
3 183 113 293 0
-3 183 -113 293 0
3 -183 113 -293 0
3 183 95 275 0
-3 183 -95 275 0
3 -183 95 -275 0
3 183 25 205 0
-3 183 -25 205 0
3 -183 25 -205 0
4 184 27 207 0
-4 184 -27 207 0
4 -184 27 -207 0
4 184 171 351 0
-4 184 -171 351 0
4 -184 171 -351 0
4 184 108 288 0
-4 184 -108 288 0
4 -184 108 -288 0
4 184 53 233 0
-4 184 -53 233 0
4 -184 53 -233 0
4 184 71 251 0
-4 184 -71 251 0
4 -184 71 -251 0
5 185 103 283 0
-5 185 -103 283 0
5 -185 103 -283 0
5 185 69 249 0
-5 185 -69 249 0
5 -185 69 -249 0
5 185 57 237 0
-5 185 -57 237 0
5 -185 57 -237 0
5 185 22 202 0
-5 185 -22 202 0
5 -185 22 -202 0
5 185 104 284 0
-5 185 -104 284 0
5 -185 104 -284 0
6 186 143 323 0
-6 186 -143 323 0
6 -186 143 -323 0
6 186 146 326 0
-6 186 -146 326 0
6 -186 146 -326 0
6 186 132 312 0
-6 186 -132 312 0
6 -186 132 -312 0
6 186 175 355 0
-6 186 -175 355 0
6 -186 175 -355 0
6 186 165 345 0
-6 186 -165 345 0
6 -186 165 -345 0
7 187 39 219 0
-7 187 -39 219 0
7 -187 39 -219 0
7 187 23 203 0
-7 187 -23 203 0
7 -187 23 -203 0
7 187 64 244 0
-7 187 -64 244 0
7 -187 64 -244 0
7 187 143 323 0
-7 187 -143 323 0
7 -187 143 -323 0
7 187 166 346 0
-7 187 -166 346 0
7 -187 166 -346 0
8 188 157 337 0
-8 188 -157 337 0
8 -188 157 -337 0
8 188 109 289 0
-8 188 -109 289 0
8 -188 109 -289 0
8 188 74 254 0
-8 188 -74 254 0
8 -188 74 -254 0
8 188 133 313 0
-8 188 -133 313 0
8 -188 133 -313 0
8 188 107 287 0
-8 188 -107 287 0
8 -188 107 -287 0
9 189 16 196 0
-9 189 -16 196 0
9 -189 16 -196 0
9 189 158 338 0
-9 189 -158 338 0
9 -189 158 -338 0
9 189 38 218 0
-9 189 -38 218 0
9 -189 38 -218 0
9 189 67 247 0
-9 189 -67 247 0
9 -189 67 -247 0
10 190 155 335 0
-10 190 -155 335 0
10 -190 155 -335 0
10 190 22 202 0
-10 190 -22 202 0
10 -190 22 -202 0
10 190 180 360 0
-10 190 -180 360 0
10 -190 180 -360 0
10 190 167 347 0
-10 190 -167 347 0
10 -190 167 -347 0
10 190 136 316 0
-10 190 -136 316 0
10 -190 136 -316 0
11 191 33 213 0
-11 191 -33 213 0
11 -191 33 -213 0
11 191 118 298 0
-11 191 -118 298 0
11 -191 118 -298 0
11 191 47 227 0
-11 191 -47 227 0
11 -191 47 -227 0
11 191 96 276 0
-11 191 -96 276 0
11 -191 96 -276 0
11 191 72 252 0
-11 191 -72 252 0
11 -191 72 -252 0
12 192 51 231 0
-12 192 -51 231 0
12 -192 51 -231 0
12 192 177 357 0
-12 192 -177 357 0
12 -192 177 -357 0
12 192 131 311 0
-12 192 -131 311 0
12 -192 131 -311 0
12 192 179 359 0
-12 192 -179 359 0
12 -192 179 -359 0
12 192 26 206 0
-12 192 -26 206 0
12 -192 26 -206 0
13 193 109 289 0
-13 193 -109 289 0
13 -193 109 -289 0
13 193 53 233 0
-13 193 -53 233 0
13 -193 53 -233 0
13 193 163 343 0
-13 193 -163 343 0
13 -193 163 -343 0
13 193 106 286 0
-13 193 -106 286 0
13 -193 106 -286 0
13 193 27 207 0
-13 193 -27 207 0
13 -193 27 -207 0
14 194 39 219 0
-14 194 -39 219 0
14 -194 39 -219 0
14 194 114 294 0
-14 194 -114 294 0
14 -194 114 -294 0
14 194 70 250 0
-14 194 -70 250 0
14 -194 70 -250 0
14 194 125 305 0
-14 194 -125 305 0
14 -194 125 -305 0
14 194 100 280 0
-14 194 -100 280 0
14 -194 100 -280 0
15 195 155 335 0
-15 195 -155 335 0
15 -195 155 -335 0
15 195 107 287 0
-15 195 -107 287 0
15 -195 107 -287 0
15 195 64 244 0
-15 195 -64 244 0
15 -195 64 -244 0
15 195 84 264 0
-15 195 -84 264 0
15 -195 84 -264 0
15 195 79 259 0
-15 195 -79 259 0
15 -195 79 -259 0
16 196 135 315 0
-16 196 -135 315 0
16 -196 135 -315 0
16 196 28 208 0
-16 196 -28 208 0
16 -196 28 -208 0
16 196 17 197 0
-16 196 -17 197 0
16 -196 17 -197 0
16 196 106 286 0
-16 196 -106 286 0
16 -196 106 -286 0
17 197 46 226 0
-17 197 -46 226 0
17 -197 46 -226 0
17 197 20 200 0
-17 197 -20 200 0
17 -197 20 -200 0
17 197 170 350 0
-17 197 -170 350 0
17 -197 170 -350 0
17 197 82 262 0
-17 197 -82 262 0
17 -197 82 -262 0
18 198 92 272 0
-18 198 -92 272 0
18 -198 92 -272 0
18 198 81 261 0
-18 198 -81 261 0
18 -198 81 -261 0
18 198 161 341 0
-18 198 -161 341 0
18 -198 161 -341 0
18 198 123 303 0
-18 198 -123 303 0
18 -198 123 -303 0
18 198 168 348 0
-18 198 -168 348 0
18 -198 168 -348 0
19 199 150 330 0
-19 199 -150 330 0
19 -199 150 -330 0
19 199 63 243 0
-19 199 -63 243 0
19 -199 63 -243 0
19 199 99 279 0
-19 199 -99 279 0
19 -199 99 -279 0
19 199 65 245 0
-19 199 -65 245 0
19 -199 65 -245 0
19 199 125 305 0
-19 199 -125 305 0
19 -199 125 -305 0
20 200 167 347 0
-20 200 -167 347 0
20 -200 167 -347 0
20 200 137 317 0
-20 200 -137 317 0
20 -200 137 -317 0
20 200 134 314 0
-20 200 -134 314 0
20 -200 134 -314 0
20 200 25 205 0
-20 200 -25 205 0
20 -200 25 -205 0
21 201 101 281 0
-21 201 -101 281 0
21 -201 101 -281 0
21 201 111 291 0
-21 201 -111 291 0
21 -201 111 -291 0
21 201 109 289 0
-21 201 -109 289 0
21 -201 109 -289 0
21 201 156 336 0
-21 201 -156 336 0
21 -201 156 -336 0
21 201 159 339 0
-21 201 -159 339 0
21 -201 159 -339 0
22 202 32 212 0
-22 202 -32 212 0
22 -202 32 -212 0
22 202 172 352 0
-22 202 -172 352 0
22 -202 172 -352 0
22 202 128 308 0
-22 202 -128 308 0
22 -202 128 -308 0
23 203 62 242 0
-23 203 -62 242 0
23 -203 62 -242 0
23 203 65 245 0
-23 203 -65 245 0
23 -203 65 -245 0
23 203 112 292 0
-23 203 -112 292 0
23 -203 112 -292 0
23 203 119 299 0
-23 203 -119 299 0
23 -203 119 -299 0
24 204 37 217 0
-24 204 -37 217 0
24 -204 37 -217 0
24 204 73 253 0
-24 204 -73 253 0
24 -204 73 -253 0
24 204 28 208 0
-24 204 -28 208 0
24 -204 28 -208 0
24 204 130 310 0
-24 204 -130 310 0
24 -204 130 -310 0
24 204 104 284 0
-24 204 -104 284 0
24 -204 104 -284 0
25 205 28 208 0
-25 205 -28 208 0
25 -205 28 -208 0
25 205 114 294 0
-25 205 -114 294 0
25 -205 114 -294 0
25 205 41 221 0
-25 205 -41 221 0
25 -205 41 -221 0
26 206 118 298 0
-26 206 -118 298 0
26 -206 118 -298 0
26 206 109 289 0
-26 206 -109 289 0
26 -206 109 -289 0
26 206 113 293 0
-26 206 -113 293 0
26 -206 113 -293 0
26 206 173 353 0
-26 206 -173 353 0
26 -206 173 -353 0
27 207 65 245 0
-27 207 -65 245 0
27 -207 65 -245 0
27 207 48 228 0
-27 207 -48 228 0
27 -207 48 -228 0
27 207 58 238 0
-27 207 -58 238 0
27 -207 58 -238 0
28 208 92 272 0
-28 208 -92 272 0
28 -208 92 -272 0
28 208 119 299 0
-28 208 -119 299 0
28 -208 119 -299 0
29 209 79 259 0
-29 209 -79 259 0
29 -209 79 -259 0
29 209 47 227 0
-29 209 -47 227 0
29 -209 47 -227 0
29 209 96 276 0
-29 209 -96 276 0
29 -209 96 -276 0
29 209 73 253 0
-29 209 -73 253 0
29 -209 73 -253 0
29 209 169 349 0
-29 209 -169 349 0
29 -209 169 -349 0
30 210 173 353 0
-30 210 -173 353 0
30 -210 173 -353 0
30 210 35 215 0
-30 210 -35 215 0
30 -210 35 -215 0
30 210 98 278 0
-30 210 -98 278 0
30 -210 98 -278 0
30 210 163 343 0
-30 210 -163 343 0
30 -210 163 -343 0
30 210 83 263 0
-30 210 -83 263 0
30 -210 83 -263 0
31 211 91 271 0
-31 211 -91 271 0
31 -211 91 -271 0
31 211 130 310 0
-31 211 -130 310 0
31 -211 130 -310 0
31 211 154 334 0
-31 211 -154 334 0
31 -211 154 -334 0
31 211 166 346 0
-31 211 -166 346 0
31 -211 166 -346 0
31 211 133 313 0
-31 211 -133 313 0
31 -211 133 -313 0
32 212 161 341 0
-32 212 -161 341 0
32 -212 161 -341 0
32 212 44 224 0
-32 212 -44 224 0
32 -212 44 -224 0
32 212 127 307 0
-32 212 -127 307 0
32 -212 127 -307 0
32 212 140 320 0
-32 212 -140 320 0
32 -212 140 -320 0
33 213 66 246 0
-33 213 -66 246 0
33 -213 66 -246 0
33 213 131 311 0
-33 213 -131 311 0
33 -213 131 -311 0
33 213 98 278 0
-33 213 -98 278 0
33 -213 98 -278 0
33 213 89 269 0
-33 213 -89 269 0
33 -213 89 -269 0
34 214 91 271 0
-34 214 -91 271 0
34 -214 91 -271 0
34 214 142 322 0
-34 214 -142 322 0
34 -214 142 -322 0
34 214 132 312 0
-34 214 -132 312 0
34 -214 132 -312 0
34 214 73 253 0
-34 214 -73 253 0
34 -214 73 -253 0
34 214 124 304 0
-34 214 -124 304 0
34 -214 124 -304 0
35 215 74 254 0
-35 215 -74 254 0
35 -215 74 -254 0
35 215 82 262 0
-35 215 -82 262 0
35 -215 82 -262 0
35 215 137 317 0
-35 215 -137 317 0
35 -215 137 -317 0
35 215 68 248 0
-35 215 -68 248 0
35 -215 68 -248 0
36 216 72 252 0
-36 216 -72 252 0
36 -216 72 -252 0
36 216 169 349 0
-36 216 -169 349 0
36 -216 169 -349 0
36 216 48 228 0
-36 216 -48 228 0
36 -216 48 -228 0
36 216 89 269 0
-36 216 -89 269 0
36 -216 89 -269 0
36 216 161 341 0
-36 216 -161 341 0
36 -216 161 -341 0
37 217 177 357 0
-37 217 -177 357 0
37 -217 177 -357 0
37 217 152 332 0
-37 217 -152 332 0
37 -217 152 -332 0
37 217 50 230 0
-37 217 -50 230 0
37 -217 50 -230 0
37 217 93 273 0
-37 217 -93 273 0
37 -217 93 -273 0
38 218 128 308 0
-38 218 -128 308 0
38 -218 128 -308 0
38 218 171 351 0
-38 218 -171 351 0
38 -218 171 -351 0
38 218 57 237 0
-38 218 -57 237 0
38 -218 57 -237 0
38 218 68 248 0
-38 218 -68 248 0
38 -218 68 -248 0
39 219 42 222 0
-39 219 -42 222 0
39 -219 42 -222 0
39 219 174 354 0
-39 219 -174 354 0
39 -219 174 -354 0
39 219 176 356 0
-39 219 -176 356 0
39 -219 176 -356 0
40 220 55 235 0
-40 220 -55 235 0
40 -220 55 -235 0
40 220 98 278 0
-40 220 -98 278 0
40 -220 98 -278 0
40 220 120 300 0
-40 220 -120 300 0
40 -220 120 -300 0
40 220 49 229 0
-40 220 -49 229 0
40 -220 49 -229 0
40 220 137 317 0
-40 220 -137 317 0
40 -220 137 -317 0
41 221 131 311 0
-41 221 -131 311 0
41 -221 131 -311 0
41 221 119 299 0
-41 221 -119 299 0
41 -221 119 -299 0
41 221 141 321 0
-41 221 -141 321 0
41 -221 141 -321 0
41 221 77 257 0
-41 221 -77 257 0
41 -221 77 -257 0
42 222 92 272 0
-42 222 -92 272 0
42 -222 92 -272 0
42 222 44 224 0
-42 222 -44 224 0
42 -222 44 -224 0
42 222 134 314 0
-42 222 -134 314 0
42 -222 134 -314 0
42 222 171 351 0
-42 222 -171 351 0
42 -222 171 -351 0
43 223 51 231 0
-43 223 -51 231 0
43 -223 51 -231 0
43 223 95 275 0
-43 223 -95 275 0
43 -223 95 -275 0
43 223 115 295 0
-43 223 -115 295 0
43 -223 115 -295 0
43 223 107 287 0
-43 223 -107 287 0
43 -223 107 -287 0
43 223 89 269 0
-43 223 -89 269 0
43 -223 89 -269 0
44 224 138 318 0
-44 224 -138 318 0
44 -224 138 -318 0
44 224 119 299 0
-44 224 -119 299 0
44 -224 119 -299 0
44 224 136 316 0
-44 224 -136 316 0
44 -224 136 -316 0
45 225 69 249 0
-45 225 -69 249 0
45 -225 69 -249 0
45 225 106 286 0
-45 225 -106 286 0
45 -225 106 -286 0
45 225 88 268 0
-45 225 -88 268 0
45 -225 88 -268 0
45 225 85 265 0
-45 225 -85 265 0
45 -225 85 -265 0
45 225 140 320 0
-45 225 -140 320 0
45 -225 140 -320 0
46 226 84 264 0
-46 226 -84 264 0
46 -226 84 -264 0
46 226 97 277 0
-46 226 -97 277 0
46 -226 97 -277 0
46 226 139 319 0
-46 226 -139 319 0
46 -226 139 -319 0
47 227 82 262 0
-47 227 -82 262 0
47 -227 82 -262 0
47 227 151 331 0
-47 227 -151 331 0
47 -227 151 -331 0
47 227 78 258 0
-47 227 -78 258 0
47 -227 78 -258 0
48 228 124 304 0
-48 228 -124 304 0
48 -228 124 -304 0
48 228 152 332 0
-48 228 -152 332 0
48 -228 152 -332 0
48 228 141 321 0
-48 228 -141 321 0
48 -228 141 -321 0
49 229 114 294 0
-49 229 -114 294 0
49 -229 114 -294 0
49 229 67 247 0
-49 229 -67 247 0
49 -229 67 -247 0
49 229 75 255 0
-49 229 -75 255 0
49 -229 75 -255 0
49 229 177 357 0
-49 229 -177 357 0
49 -229 177 -357 0
50 230 132 312 0
-50 230 -132 312 0
50 -230 132 -312 0
50 230 170 350 0
-50 230 -170 350 0
50 -230 170 -350 0
50 230 80 260 0
-50 230 -80 260 0
50 -230 80 -260 0
50 230 78 258 0
-50 230 -78 258 0
50 -230 78 -258 0
51 231 132 312 0
-51 231 -132 312 0
51 -231 132 -312 0
51 231 94 274 0
-51 231 -94 274 0
51 -231 94 -274 0
51 231 164 344 0
-51 231 -164 344 0
51 -231 164 -344 0
52 232 178 358 0
-52 232 -178 358 0
52 -232 178 -358 0
52 232 127 307 0
-52 232 -127 307 0
52 -232 127 -307 0
52 232 71 251 0
-52 232 -71 251 0
52 -232 71 -251 0
52 232 119 299 0
-52 232 -119 299 0
52 -232 119 -299 0
52 232 114 294 0
-52 232 -114 294 0
52 -232 114 -294 0
53 233 69 249 0
-53 233 -69 249 0
53 -233 69 -249 0
53 233 61 241 0
-53 233 -61 241 0
53 -233 61 -241 0
53 233 56 236 0
-53 233 -56 236 0
53 -233 56 -236 0
54 234 64 244 0
-54 234 -64 244 0
54 -234 64 -244 0
54 234 116 296 0
-54 234 -116 296 0
54 -234 116 -296 0
54 234 57 237 0
-54 234 -57 237 0
54 -234 57 -237 0
54 234 130 310 0
-54 234 -130 310 0
54 -234 130 -310 0
54 234 90 270 0
-54 234 -90 270 0
54 -234 90 -270 0
55 235 113 293 0
-55 235 -113 293 0
55 -235 113 -293 0
55 235 141 321 0
-55 235 -141 321 0
55 -235 141 -321 0
55 235 121 301 0
-55 235 -121 301 0
55 -235 121 -301 0
55 235 89 269 0
-55 235 -89 269 0
55 -235 89 -269 0
56 236 68 248 0
-56 236 -68 248 0
56 -236 68 -248 0
56 236 91 271 0
-56 236 -91 271 0
56 -236 91 -271 0
56 236 130 310 0
-56 236 -130 310 0
56 -236 130 -310 0
56 236 145 325 0
-56 236 -145 325 0
56 -236 145 -325 0
57 237 148 328 0
-57 237 -148 328 0
57 -237 148 -328 0
57 237 150 330 0
-57 237 -150 330 0
57 -237 150 -330 0
58 238 110 290 0
-58 238 -110 290 0
58 -238 110 -290 0
58 238 163 343 0
-58 238 -163 343 0
58 -238 163 -343 0
58 238 148 328 0
-58 238 -148 328 0
58 -238 148 -328 0
58 238 66 246 0
-58 238 -66 246 0
58 -238 66 -246 0
59 239 149 329 0
-59 239 -149 329 0
59 -239 149 -329 0
59 239 90 270 0
-59 239 -90 270 0
59 -239 90 -270 0
59 239 96 276 0
-59 239 -96 276 0
59 -239 96 -276 0
59 239 160 340 0
-59 239 -160 340 0
59 -239 160 -340 0
59 239 168 348 0
-59 239 -168 348 0
59 -239 168 -348 0
60 240 79 259 0
-60 240 -79 259 0
60 -240 79 -259 0
60 240 145 325 0
-60 240 -145 325 0
60 -240 145 -325 0
60 240 97 277 0
-60 240 -97 277 0
60 -240 97 -277 0
60 240 180 360 0
-60 240 -180 360 0
60 -240 180 -360 0
60 240 92 272 0
-60 240 -92 272 0
60 -240 92 -272 0
61 241 76 256 0
-61 241 -76 256 0
61 -241 76 -256 0
61 241 98 278 0
-61 241 -98 278 0
61 -241 98 -278 0
61 241 135 315 0
-61 241 -135 315 0
61 -241 135 -315 0
61 241 122 302 0
-61 241 -122 302 0
61 -241 122 -302 0
62 242 97 277 0
-62 242 -97 277 0
62 -242 97 -277 0
62 242 81 261 0
-62 242 -81 261 0
62 -242 81 -261 0
62 242 76 256 0
-62 242 -76 256 0
62 -242 76 -256 0
62 242 115 295 0
-62 242 -115 295 0
62 -242 115 -295 0
63 243 123 303 0
-63 243 -123 303 0
63 -243 123 -303 0
63 243 139 319 0
-63 243 -139 319 0
63 -243 139 -319 0
63 243 102 282 0
-63 243 -102 282 0
63 -243 102 -282 0
63 243 176 356 0
-63 243 -176 356 0
63 -243 176 -356 0
64 244 82 262 0
-64 244 -82 262 0
64 -244 82 -262 0
64 244 67 247 0
-64 244 -67 247 0
64 -244 67 -247 0
65 245 139 319 0
-65 245 -139 319 0
65 -245 139 -319 0
65 245 175 355 0
-65 245 -175 355 0
65 -245 175 -355 0
66 246 126 306 0
-66 246 -126 306 0
66 -246 126 -306 0
66 246 162 342 0
-66 246 -162 342 0
66 -246 162 -342 0
66 246 138 318 0
-66 246 -138 318 0
66 -246 138 -318 0
67 247 115 295 0
-67 247 -115 295 0
67 -247 115 -295 0
67 247 74 254 0
-67 247 -74 254 0
67 -247 74 -254 0
68 248 177 357 0
-68 248 -177 357 0
68 -248 177 -357 0
68 248 146 326 0
-68 248 -146 326 0
68 -248 146 -326 0
69 249 111 291 0
-69 249 -111 291 0
69 -249 111 -291 0
69 249 178 358 0
-69 249 -178 358 0
69 -249 178 -358 0
70 250 100 280 0
-70 250 -100 280 0
70 -250 100 -280 0
70 250 176 356 0
-70 250 -176 356 0
70 -250 176 -356 0
70 250 96 276 0
-70 250 -96 276 0
70 -250 96 -276 0
70 250 177 357 0
-70 250 -177 357 0
70 -250 177 -357 0
71 251 91 271 0
-71 251 -91 271 0
71 -251 91 -271 0
71 251 89 269 0
-71 251 -89 269 0
71 -251 89 -269 0
71 251 117 297 0
-71 251 -117 297 0
71 -251 117 -297 0
72 252 176 356 0
-72 252 -176 356 0
72 -252 176 -356 0
72 252 165 345 0
-72 252 -165 345 0
72 -252 165 -345 0
72 252 171 351 0
-72 252 -171 351 0
72 -252 171 -351 0
73 253 75 255 0
-73 253 -75 255 0
73 -253 75 -255 0
73 253 106 286 0
-73 253 -106 286 0
73 -253 106 -286 0
74 254 96 276 0
-74 254 -96 276 0
74 -254 96 -276 0
74 254 153 333 0
-74 254 -153 333 0
74 -254 153 -333 0
75 255 152 332 0
-75 255 -152 332 0
75 -255 152 -332 0
75 255 81 261 0
-75 255 -81 261 0
75 -255 81 -261 0
75 255 109 289 0
-75 255 -109 289 0
75 -255 109 -289 0
76 256 100 280 0
-76 256 -100 280 0
76 -256 100 -280 0
76 256 155 335 0
-76 256 -155 335 0
76 -256 155 -335 0
76 256 179 359 0
-76 256 -179 359 0
76 -256 179 -359 0
77 257 95 275 0
-77 257 -95 275 0
77 -257 95 -275 0
77 257 126 306 0
-77 257 -126 306 0
77 -257 126 -306 0
77 257 105 285 0
-77 257 -105 285 0
77 -257 105 -285 0
77 257 157 337 0
-77 257 -157 337 0
77 -257 157 -337 0
78 258 140 320 0
-78 258 -140 320 0
78 -258 140 -320 0
78 258 134 314 0
-78 258 -134 314 0
78 -258 134 -314 0
78 258 125 305 0
-78 258 -125 305 0
78 -258 125 -305 0
79 259 95 275 0
-79 259 -95 275 0
79 -259 95 -275 0
79 259 149 329 0
-79 259 -149 329 0
79 -259 149 -329 0
80 260 105 285 0
-80 260 -105 285 0
80 -260 105 -285 0
80 260 150 330 0
-80 260 -150 330 0
80 -260 150 -330 0
80 260 138 318 0
-80 260 -138 318 0
80 -260 138 -318 0
80 260 163 343 0
-80 260 -163 343 0
80 -260 163 -343 0
81 261 173 353 0
-81 261 -173 353 0
81 -261 173 -353 0
81 261 140 320 0
-81 261 -140 320 0
81 -261 140 -320 0
82 262 115 295 0
-82 262 -115 295 0
82 -262 115 -295 0
83 263 124 304 0
-83 263 -124 304 0
83 -263 124 -304 0
83 263 102 282 0
-83 263 -102 282 0
83 -263 102 -282 0
83 263 120 300 0
-83 263 -120 300 0
83 -263 120 -300 0
83 263 102 282 0
-83 263 -102 282 0
83 -263 102 -282 0
84 264 161 341 0
-84 264 -161 341 0
84 -264 161 -341 0
84 264 160 340 0
-84 264 -160 340 0
84 -264 160 -340 0
84 264 88 268 0
-84 264 -88 268 0
84 -264 88 -268 0
85 265 104 284 0
-85 265 -104 284 0
85 -265 104 -284 0
85 265 155 335 0
-85 265 -155 335 0
85 -265 155 -335 0
85 265 101 281 0
-85 265 -101 281 0
85 -265 101 -281 0
85 265 163 343 0
-85 265 -163 343 0
85 -265 163 -343 0
86 266 167 347 0
-86 266 -167 347 0
86 -266 167 -347 0
86 266 143 323 0
-86 266 -143 323 0
86 -266 143 -323 0
86 266 132 312 0
-86 266 -132 312 0
86 -266 132 -312 0
86 266 87 267 0
-86 266 -87 267 0
86 -266 87 -267 0
86 266 138 318 0
-86 266 -138 318 0
86 -266 138 -318 0
87 267 174 354 0
-87 267 -174 354 0
87 -267 174 -354 0
87 267 143 323 0
-87 267 -143 323 0
87 -267 143 -323 0
88 268 152 332 0
-88 268 -152 332 0
88 -268 152 -332 0
88 268 107 287 0
-88 268 -107 287 0
88 -268 107 -287 0
88 268 102 282 0
-88 268 -102 282 0
88 -268 102 -282 0
90 270 112 292 0
-90 270 -112 292 0
90 -270 112 -292 0
90 270 128 308 0
-90 270 -128 308 0
90 -270 128 -308 0
90 270 174 354 0
-90 270 -174 354 0
90 -270 174 -354 0
91 271 168 348 0
-91 271 -168 348 0
91 -271 168 -348 0
92 272 144 324 0
-92 272 -144 324 0
92 -272 144 -324 0
93 273 101 281 0
-93 273 -101 281 0
93 -273 101 -281 0
93 273 174 354 0
-93 273 -174 354 0
93 -273 174 -354 0
93 273 108 288 0
-93 273 -108 288 0
93 -273 108 -288 0
93 273 112 292 0
-93 273 -112 292 0
93 -273 112 -292 0
94 274 149 329 0
-94 274 -149 329 0
94 -274 149 -329 0
94 274 144 324 0
-94 274 -144 324 0
94 -274 144 -324 0
94 274 105 285 0
-94 274 -105 285 0
94 -274 105 -285 0
94 274 141 321 0
-94 274 -141 321 0
94 -274 141 -321 0
95 275 165 345 0
-95 275 -165 345 0
95 -275 165 -345 0
97 277 114 294 0
-97 277 -114 294 0
97 -277 114 -294 0
97 277 178 358 0
-97 277 -178 358 0
97 -277 178 -358 0
98 278 179 359 0
-98 278 -179 359 0
98 -278 179 -359 0
99 279 122 302 0
-99 279 -122 302 0
99 -279 122 -302 0
99 279 142 322 0
-99 279 -142 322 0
99 -279 142 -322 0
99 279 122 302 0
-99 279 -122 302 0
99 -279 122 -302 0
100 280 125 305 0
-100 280 -125 305 0
100 -280 125 -305 0
100 280 172 352 0
-100 280 -172 352 0
100 -280 172 -352 0
101 281 103 283 0
-101 281 -103 283 0
101 -281 103 -283 0
101 281 131 311 0
-101 281 -131 311 0
101 -281 131 -311 0
102 282 154 334 0
-102 282 -154 334 0
102 -282 154 -334 0
103 283 171 351 0
-103 283 -171 351 0
103 -283 171 -351 0
103 283 128 308 0
-103 283 -128 308 0
103 -283 128 -308 0
103 283 123 303 0
-103 283 -123 303 0
103 -283 123 -303 0
104 284 108 288 0
-104 284 -108 288 0
104 -284 108 -288 0
104 284 120 300 0
-104 284 -120 300 0
104 -284 120 -300 0
105 285 110 290 0
-105 285 -110 290 0
105 -285 110 -290 0
105 285 158 338 0
-105 285 -158 338 0
105 -285 158 -338 0
106 286 117 297 0
-106 286 -117 297 0
106 -286 117 -297 0
107 287 172 352 0
-107 287 -172 352 0
107 -287 172 -352 0
108 288 136 316 0
-108 288 -136 316 0
108 -288 136 -316 0
108 288 172 352 0
-108 288 -172 352 0
108 -288 172 -352 0
110 290 167 347 0
-110 290 -167 347 0
110 -290 167 -347 0
110 290 167 347 0
-110 290 -167 347 0
110 -290 167 -347 0
110 290 115 295 0
-110 290 -115 295 0
110 -290 115 -295 0
111 291 151 331 0
-111 291 -151 331 0
111 -291 151 -331 0
111 291 121 301 0
-111 291 -121 301 0
111 -291 121 -301 0
111 291 154 334 0
-111 291 -154 334 0
111 -291 154 -334 0
112 292 116 296 0
-112 292 -116 296 0
112 -292 116 -296 0
112 292 169 349 0
-112 292 -169 349 0
112 -292 169 -349 0
113 293 172 352 0
-113 293 -172 352 0
113 -293 172 -352 0
113 293 121 301 0
-113 293 -121 301 0
113 -293 121 -301 0
116 296 136 316 0
-116 296 -136 316 0
116 -296 136 -316 0
116 296 162 342 0
-116 296 -162 342 0
116 -296 162 -342 0
116 296 135 315 0
-116 296 -135 315 0
116 -296 135 -315 0
117 297 164 344 0
-117 297 -164 344 0
117 -297 164 -344 0
117 297 159 339 0
-117 297 -159 339 0
117 -297 159 -339 0
117 297 170 350 0
-117 297 -170 350 0
117 -297 170 -350 0
118 298 144 324 0
-118 298 -144 324 0
118 -298 144 -324 0
118 298 130 310 0
-118 298 -130 310 0
118 -298 130 -310 0
118 298 137 317 0
-118 298 -137 317 0
118 -298 137 -317 0
120 300 157 337 0
-120 300 -157 337 0
120 -300 157 -337 0
120 300 158 338 0
-120 300 -158 338 0
120 -300 158 -338 0
121 301 129 309 0
-121 301 -129 309 0
121 -301 129 -309 0
121 301 161 341 0
-121 301 -161 341 0
121 -301 161 -341 0
122 302 129 309 0
-122 302 -129 309 0
122 -302 129 -309 0
122 302 150 330 0
-122 302 -150 330 0
122 -302 150 -330 0
123 303 145 325 0
-123 303 -145 325 0
123 -303 145 -325 0
123 303 148 328 0
-123 303 -148 328 0
123 -303 148 -328 0
124 304 144 324 0
-124 304 -144 324 0
124 -304 144 -324 0
124 304 147 327 0
-124 304 -147 327 0
124 -304 147 -327 0
125 305 151 331 0
-125 305 -151 331 0
125 -305 151 -331 0
126 306 144 324 0
-126 306 -144 324 0
126 -306 144 -324 0
127 307 129 309 0
-127 307 -129 309 0
127 -307 129 -309 0
127 307 150 330 0
-127 307 -150 330 0
127 -307 150 -330 0
127 307 133 313 0
-127 307 -133 313 0
127 -307 133 -313 0
128 308 152 332 0
-128 308 -152 332 0
128 -308 152 -332 0
129 309 173 353 0
-129 309 -173 353 0
129 -309 173 -353 0
129 309 165 345 0
-129 309 -165 345 0
129 -309 165 -345 0
131 311 142 322 0
-131 311 -142 322 0
131 -311 142 -322 0
133 313 142 322 0
-133 313 -142 322 0
133 -313 142 -322 0
133 313 174 354 0
-133 313 -174 354 0
133 -313 174 -354 0
134 314 149 329 0
-134 314 -149 329 0
134 -314 149 -329 0
134 314 136 316 0
-134 314 -136 316 0
134 -314 136 -316 0
135 315 148 328 0
-135 315 -148 328 0
135 -315 148 -328 0
135 315 153 333 0
-135 315 -153 333 0
135 -315 153 -333 0
137 317 179 359 0
-137 317 -179 359 0
137 -317 179 -359 0
138 318 146 326 0
-138 318 -146 326 0
138 -318 146 -326 0
139 319 173 353 0
-139 319 -173 353 0
139 -319 173 -353 0
139 319 175 355 0
-139 319 -175 355 0
139 -319 175 -355 0
140 320 162 342 0
-140 320 -162 342 0
140 -320 162 -342 0
141 321 168 348 0
-141 321 -168 348 0
141 -321 168 -348 0
142 322 180 360 0
-142 322 -180 360 0
142 -322 180 -360 0
145 325 147 327 0
-145 325 -147 327 0
145 -325 147 -327 0
145 325 159 339 0
-145 325 -159 339 0
145 -325 159 -339 0
146 326 151 331 0
-146 326 -151 331 0
146 -326 151 -331 0
146 326 156 336 0
-146 326 -156 336 0
146 -326 156 -336 0
147 327 160 340 0
-147 327 -160 340 0
147 -327 160 -340 0
147 327 156 336 0
-147 327 -156 336 0
147 -327 156 -336 0
147 327 153 333 0
-147 327 -153 333 0
147 -327 153 -333 0
149 329 157 337 0
-149 329 -157 337 0
149 -329 157 -337 0
151 331 169 349 0
-151 331 -169 349 0
151 -331 169 -349 0
153 333 166 346 0
-153 333 -166 346 0
153 -333 166 -346 0
153 333 178 358 0
-153 333 -178 358 0
153 -333 178 -358 0
154 334 180 360 0
-154 334 -180 360 0
154 -334 180 -360 0
155 335 170 350 0
-155 335 -170 350 0
155 -335 170 -350 0
156 336 165 345 0
-156 336 -165 345 0
156 -336 165 -345 0
156 336 175 355 0
-156 336 -175 355 0
156 -336 175 -355 0
157 337 169 349 0
-157 337 -169 349 0
157 -337 169 -349 0
158 338 162 342 0
-158 338 -162 342 0
158 -338 162 -342 0
159 339 164 344 0
-159 339 -164 344 0
159 -339 164 -344 0
160 340 164 344 0
-160 340 -164 344 0
160 -340 164 -344 0
160 340 162 342 0
-160 340 -162 342 0
160 -340 162 -342 0
164 344 178 358 0
-164 344 -178 358 0
164 -344 178 -358 0
166 346 168 348 0
-166 346 -168 348 0
166 -346 168 -348 0
170 350 175 355 0
-170 350 -175 355 0
170 -350 175 -355 0
176 356 180 360 0
-176 356 -180 360 0
176 -356 180 -360 0
